14
0 40 94 56 27 36 34 90 65 26 34 41 47 45
72 0 26 36 34 23 81 35 96 35 84 65 60 21
62 61 0 37 23 72 87 55 76 40 86 43 41 37
55 34 61 0 43 23 39 89 31 62 87 90 88 97
75 95 91 54 0 43 91 19 81 30 45 19 94 61
26 69 79 66 20 0 22 69 24 65 62 37 32 99
92 91 56 46 45 52 0 88 84 80 99 94 66 74
31 72 75 27 60 83 59 0 50 68 47 32 48 62
72 48 32 52 91 55 37 26 0 93 17 44 66 87
100 27 82 88 57 66 49 98 42 0 60 64 33 52
56 31 26 28 40 84 96 95 82 19 0 35 24 60
86 30 34 58 76 47 60 30 17 67 38 0 85 83
25 91 66 85 29 90 63 74 91 39 32 68 0 72
67 52 31 58 89 94 60 60 63 40 28 47 29 0
